35 35
22
3 3 32 28
3 4 32 31
3 5 11 30
3 6 4 0
3 7 32 21
3 8 11 0
3 9 32 0
3 10 0 25
3 12 32 9
3 19 4 6
3 22 11 8
4 3 7 7
4 4 3 25
4 5 0 20
4 6 3 29
4 7 7 0
4 8 7 27
4 12 28 23
4 17 7 10
4 20 0 0
4 23 28 0
14 35 14 0
